c Generated map
c Size: 13 * 13, weights in range: 1 to 10, walls: True, with ratio 0.2
c dim 1 of 3
c
p sp 169 200
c graph contains 169 nodes and 200 arcs
c
a 1 14 3
a 14 1 3
a 1 2 2
a 2 1 2
a 2 15 6
a 15 2 6
a 5 18 7
a 18 5 7
a 5 6 5
a 6 5 5
a 6 19 6
a 19 6 6
a 6 7 10
a 7 6 10
a 7 20 9
a 20 7 9
a 7 8 10
a 8 7 10
a 8 21 3
a 21 8 3
a 8 9 5
a 9 8 5
a 9 22 10
a 22 9 10
a 9 10 10
a 10 9 10
a 10 23 2
a 23 10 2
a 10 11 2
a 11 10 2
a 11 12 6
a 12 11 6
a 12 13 3
a 13 12 3
a 13 26 4
a 26 13 4
a 14 27 5
a 27 14 5
a 14 15 4
a 15 14 4
a 15 28 9
a 28 15 9
a 15 16 6
a 16 15 6
a 16 29 1
a 29 16 1
a 16 17 10
a 17 16 10
a 17 30 10
a 30 17 10
a 17 18 5
a 18 17 5
a 18 31 10
a 31 18 10
a 18 19 10
a 19 18 10
a 19 32 9
a 32 19 9
a 19 20 3
a 20 19 3
a 20 33 5
a 33 20 5
a 20 21 1
a 21 20 1
a 21 34 3
a 34 21 3
a 21 22 3
a 22 21 3
a 22 23 3
a 23 22 3
a 23 36 9
a 36 23 9
a 27 40 5
a 40 27 5
a 27 28 1
a 28 27 1
a 28 41 3
a 41 28 3
a 28 29 6
a 29 28 6
a 29 30 8
a 30 29 8
a 30 43 2
a 43 30 2
a 30 31 1
a 31 30 1
a 31 44 1
a 44 31 1
a 31 32 1
a 32 31 1
a 32 45 2
a 45 32 2
a 32 33 10
a 33 32 10
a 33 46 5
a 46 33 5
a 33 34 3
a 34 33 3
a 36 49 10
a 49 36 10
a 36 37 10
a 37 36 10
a 37 50 10
a 50 37 10
a 37 38 5
a 38 37 5
a 38 51 8
a 51 38 8
a 40 53 8
a 53 40 8
a 40 41 4
a 41 40 4
a 41 54 10
a 54 41 10
a 43 56 4
a 56 43 4
a 43 44 4
a 44 43 4
a 44 57 4
a 57 44 4
a 44 45 2
a 45 44 2
a 45 58 1
a 58 45 1
a 45 46 9
a 46 45 9
a 48 49 4
a 49 48 4
a 49 62 6
a 62 49 6
a 49 50 7
a 50 49 7
a 50 51 7
a 51 50 7
a 51 64 9
a 64 51 9
a 51 52 9
a 52 51 9
a 52 65 7
a 65 52 7
a 53 66 1
a 66 53 1
a 53 54 8
a 54 53 8
a 54 67 5
a 67 54 5
a 54 55 5
a 55 54 5
a 55 68 9
a 68 55 9
a 55 56 3
a 56 55 3
a 56 69 7
a 69 56 7
a 56 57 9
a 57 56 9
a 57 58 9
a 58 57 9
a 58 71 6
a 71 58 6
a 62 75 2
a 75 62 2
a 64 77 10
a 77 64 10
a 64 65 9
a 65 64 9
a 65 78 5
a 78 65 5
a 66 79 6
a 79 66 6
a 66 67 3
a 67 66 3
a 67 80 5
a 80 67 5
a 67 68 1
a 68 67 1
a 68 69 1
a 69 68 1
a 71 84 10
a 84 71 10
a 71 72 1
a 72 71 1
a 72 85 2
a 85 72 2
a 72 73 2
a 73 72 2
a 73 86 9
a 86 73 9
a 75 88 7
a 88 75 7
a 75 76 6
a 76 75 6
a 76 89 7
a 89 76 7
a 76 77 6
a 77 76 6
a 77 90 5
a 90 77 5
a 77 78 9
a 78 77 9
a 78 91 3
a 91 78 3
a 79 92 7
a 92 79 7
a 79 80 9
a 80 79 9
a 80 93 2
a 93 80 2
a 83 84 8
a 84 83 8
a 84 85 8
a 85 84 8
a 85 86 7
a 86 85 7
a 88 101 2
a 101 88 2
a 88 89 9
a 89 88 9
a 89 102 6
a 102 89 6
a 89 90 10
a 90 89 10
a 90 103 2
a 103 90 2
a 90 91 10
a 91 90 10
a 91 104 4
a 104 91 4
a 92 105 5
a 105 92 5
a 92 93 6
a 93 92 6
a 93 106 1
a 106 93 1
a 93 94 10
a 94 93 10
a 94 107 10
a 107 94 10
a 94 95 6
a 95 94 6
a 95 108 8
a 108 95 8
a 101 114 5
a 114 101 5
a 101 102 5
a 102 101 5
a 102 115 1
a 115 102 1
a 102 103 3
a 103 102 3
a 103 116 2
a 116 103 2
a 103 104 8
a 104 103 8
a 104 117 5
a 117 104 5
a 105 118 3
a 118 105 3
a 105 106 3
a 106 105 3
a 106 119 3
a 119 106 3
a 106 107 6
a 107 106 6
a 107 120 6
a 120 107 6
a 107 108 7
a 108 107 7
a 108 121 8
a 121 108 8
a 108 109 2
a 109 108 2
a 109 122 1
a 122 109 1
a 109 110 5
a 110 109 5
a 110 111 8
a 111 110 8
a 111 124 3
a 124 111 3
a 113 126 7
a 126 113 7
a 113 114 6
a 114 113 6
a 114 127 5
a 127 114 5
a 114 115 8
a 115 114 8
a 115 116 1
a 116 115 1
a 116 129 2
a 129 116 2
a 116 117 5
a 117 116 5
a 117 130 7
a 130 117 7
a 118 131 3
a 131 118 3
a 118 119 10
a 119 118 10
a 119 132 3
a 132 119 3
a 119 120 4
a 120 119 4
a 120 133 1
a 133 120 1
a 120 121 10
a 121 120 10
a 121 134 2
a 134 121 2
a 121 122 9
a 122 121 9
a 122 135 4
a 135 122 4
a 124 125 5
a 125 124 5
a 125 138 9
a 138 125 9
a 125 126 7
a 126 125 7
a 126 139 8
a 139 126 8
a 126 127 8
a 127 126 8
a 129 130 10
a 130 129 10
a 131 132 2
a 132 131 2
a 132 145 10
a 145 132 10
a 132 133 6
a 133 132 6
a 133 134 3
a 134 133 3
a 134 147 9
a 147 134 9
a 134 135 9
a 135 134 9
a 135 148 1
a 148 135 1
a 138 151 4
a 151 138 4
a 138 139 2
a 139 138 2
a 139 152 2
a 152 139 2
a 141 154 6
a 154 141 6
a 145 158 1
a 158 145 1
a 147 160 7
a 160 147 7
a 147 148 3
a 148 147 3
a 148 161 4
a 161 148 4
a 148 149 3
a 149 148 3
a 149 162 7
a 162 149 7
a 149 150 7
a 150 149 7
a 150 151 5
a 151 150 5
a 151 164 6
a 164 151 6
a 151 152 10
a 152 151 10
a 152 165 3
a 165 152 3
a 154 167 9
a 167 154 9
a 154 155 6
a 155 154 6
a 155 168 10
a 168 155 10
a 155 156 3
a 156 155 3
a 156 169 5
a 169 156 5
a 157 158 6
a 158 157 6
a 158 159 9
a 159 158 9
a 159 160 10
a 160 159 10
a 160 161 4
a 161 160 4
a 161 162 10
a 162 161 10
a 164 165 3
a 165 164 3
a 165 166 4
a 166 165 4
a 166 167 9
a 167 166 9
a 167 168 10
a 168 167 10
a 168 169 5
a 169 168 5
